10 10
2 25 7 75 9 75 1 76 3 38 0 62 4 38 6 59 8 14 5 13 
9 46 3 31 8 57 4 92 7 3 6 67 1 5 5 11 2 11 0 40 
0 34 7 77 9 42 1 35 2 96 5 22 3 55 4 21 8 29 6 16 
1 22 2 98 9 8 0 35 6 59 8 31 3 13 7 46 5 52 4 22 
0 18 1 19 6 64 8 29 4 70 7 99 3 42 2 2 9 35 5 11 
8 92 9 88 4 97 5 21 0 56 6 17 2 43 3 27 1 19 7 23 
9 50 6 5 5 59 1 71 7 47 4 39 0 82 8 35 3 12 2 2 
8 39 5 42 3 52 1 65 7 35 6 48 0 57 9 5 2 2 4 60 
0 64 3 86 2 3 6 51 8 26 5 34 9 39 7 45 4 63 1 54 
1 40 6 43 7 50 8 71 0 46 2 99 4 67 5 34 9 6 3 95 